50	
4497	
4521	
975	974
972	970
546	544
816	816
273	273
918	917
483	481
840	839
543	542
342	342
15	15
801	799
525	523
744	742
879	879
72	72
654	654
78	78
162	162
477	477
906	905
381	379
69	68
84	84
585	585
564	562
210	208
525	523
330	330
750	748
741	741
540	540
861	860
69	67
435	435
498	497
810	809
981	979
174	174
105	103
972	972
147	145
954	953
951	951
954	954
57	55
333	332
840	840
804	804
21	21